
(set-logic ALL) 

(declare-datatype MyList ((Nil) (Cons (head Real) (tail MyList)) )) 
(declare-fun l0 () MyList) 
(declare-fun l1 () MyList) 
(declare-fun l2 () MyList) 
(declare-fun l3 () MyList) 
(declare-fun i0 () Real) 
(declare-fun i1 () Real) 
(assert (= l3 l1) )
(assert (and (is-Cons Nil) (= l3 Nil)) )
(assert (= l3 Nil) )
(assert (and (is-Cons Nil) (is-Cons Nil)) )
(assert (not (= l1 Nil)) )
(assert (not (= l0 l0)) )
(assert (is-Cons l1) )
(assert (and (= l0 Nil) (= l2 Nil) (= l1 l3) (= l2 Nil)) )
(check-sat)
